fac1.py
Ipopt 3.12: 
==> Warning: Treating 6 binary and 0 integer variables as continous.


******************************************************************************
This program contains Ipopt, a library for large-scale nonlinear optimization.
 Ipopt is released as open source code under the Eclipse Public License (EPL).
         For more information visit http://projects.coin-or.org/Ipopt
******************************************************************************

This is Ipopt version 3.12, running with linear solver ma27.

Number of nonzeros in equality constraint Jacobian...:       28
Number of nonzeros in inequality constraint Jacobian.:       28
Number of nonzeros in Lagrangian Hessian.............:       72

Total number of variables............................:       22
                     variables with only lower bounds:        0
                variables with lower and upper bounds:       22
                     variables with only upper bounds:        0
Total number of equality constraints.................:       10
Total number of inequality constraints...............:        8
        inequality constraints with only lower bounds:        2
   inequality constraints with lower and upper bounds:        0
        inequality constraints with only upper bounds:        6

iter    objective    inf_pr   inf_du lg(mu)  ||d||  lg(rg) alpha_du alpha_pr  ls
   0  4.7867175e+01 1.78e+00 5.42e-01  -1.0 0.00e+00    -  0.00e+00 0.00e+00   0
   1  1.3699974e+07 1.12e+00 5.93e+03  -1.0 1.60e+02    -  2.15e-04 3.71e-01h  2
   2  1.0769342e+08 2.64e-01 5.07e+03  -1.0 1.52e+02    -  2.35e-01 7.64e-01h  1
   3  1.2250228e+08 1.83e-01 3.54e+03  -1.0 6.20e+01    -  3.83e-01 3.05e-01h  1
   4  1.3535967e+08 1.18e-01 2.30e+03  -1.0 6.30e+01    -  6.08e-01 3.55e-01h  1
   5  1.5470769e+08 2.70e-02 5.49e+02  -1.0 8.64e+01    -  6.19e-01 7.72e-01h  1
   6  1.5533313e+08 2.42e-02 4.91e+02  -1.0 5.82e+01    -  8.62e-01 1.05e-01h  1
   7  1.5716926e+08 1.59e-02 3.23e+02  -1.0 9.62e+00    -  8.27e-01 3.42e-01h  1
   8  1.6019517e+08 2.39e-03 4.91e+01  -1.0 2.15e+01    -  1.00e+00 8.50e-01h  1
   9  1.6071512e+08 7.96e-05 1.65e+00  -1.7 1.35e+00    -  1.00e+00 9.67e-01h  1
iter    objective    inf_pr   inf_du lg(mu)  ||d||  lg(rg) alpha_du alpha_pr  ls
  10  1.6073119e+08 8.42e-06 1.75e-01  -2.5 1.46e+00    -  9.88e-01 8.94e-01h  1
  11  1.6073300e+08 3.70e-07 1.15e-02  -3.8 3.11e-01    -  1.00e+00 9.56e-01h  1
  12  1.6073309e+08 2.84e-14 2.13e-09  -5.7 2.22e-03    -  1.00e+00 1.00e+00h  1
  13  1.6073309e+08 5.68e-14 4.70e-01  -8.6 7.25e-04    -  7.97e-01 9.93e-01f  1
  14  1.6073309e+08 2.84e-14 6.06e-01  -8.6 3.28e-03    -  7.92e-01 1.00e+00f  1
  15  1.6073309e+08 2.84e-14 9.89e-10  -8.6 1.53e-02    -  1.00e+00 1.00e+00h  1

Number of Iterations....: 15

                                   (scaled)                 (unscaled)
Objective...............:   6.4293235033720424e+06    1.6073308758430105e+08
Dual infeasibility......:   9.8850653606928966e-10    2.4712663401732242e-08
Constraint violation....:   1.5789838572446671e-14    2.8421709430404007e-14
Complementarity.........:   3.8887886289252269e-09    9.7219715723130667e-08
Overall NLP error.......:   3.8887886289252269e-09    9.7219715723130667e-08


Number of objective function evaluations             = 17
Number of objective gradient evaluations             = 16
Number of equality constraint evaluations            = 17
Number of inequality constraint evaluations          = 17
Number of equality constraint Jacobian evaluations   = 16
Number of inequality constraint Jacobian evaluations = 16
Number of Lagrangian Hessian evaluations             = 15
Total CPU secs in IPOPT (w/o function evaluations)   =      0.006
Total CPU secs in NLP function evaluations           =      0.000

EXIT: Optimal Solution Found.

Time elapsed: 0.11526918411254883